
===== New CPLEX run =====
Instance: /home/yorig/tuner/mpils-tests/instances/miplib/easy/lotsize.mps
Config: /scratch/yorig/mpils-results-grid-seconds-5-watchdog/easy/24proc/seed-5/4_lotsize_seed-5_20260504_011421/expansion/config_param_CPXPARAM_Simplex_DGradient_1_iter_2.prm
========================

Selected objective sense:  MINIMIZE
Selected objective  name:  R1921
Selected RHS        name:  B
Selected bound      name:  BOUND
Wall watchdog: enabled factor=1 grace=1 limit=6 seconds
Version identifier: 22.1.2.0 | 2024-11-26 | 0edbb82fd
CPXPARAM_Simplex_DGradient                       1
CPXPARAM_Threads                                 8
CPXPARAM_Parallel                                1
CPXPARAM_MIP_Cuts_Cliques                        -1
CPXPARAM_MIP_Cuts_Covers                         -1
CPXPARAM_MIP_Cuts_Implied                        1
CPXPARAM_MIP_Limits_GomoryCand                   25
CPXPARAM_MIP_Cuts_Gomory                         1
CPXPARAM_MIP_Cuts_PathCut                        2
CPXPARAM_MIP_Cuts_Disjunctive                    -1
CPXPARAM_Emphasis_MIP                            1
CPXPARAM_TimeLimit                               5
Tried aggregator 1 time.
MIP Presolve eliminated 595 rows and 0 columns.
MIP Presolve added 1190 rows and 0 columns.
MIP Presolve modified 10 coefficients.
Reduced MIP has 2515 rows, 2985 columns, and 7755 nonzeros.
Reduced MIP has 1195 binaries, 0 generals, 0 SOSs, and 0 indicators.
Presolve time = 0.00 sec. (4.53 ticks)
Probing fixed 0 vars, tightened 5487 bounds.
Probing time = 0.01 sec. (18.38 ticks)
Tried aggregator 2 times.
Detecting symmetries...
MIP Presolve modified 1206 coefficients.
Aggregator did 10 substitutions.
Reduced MIP has 2505 rows, 2975 columns, and 7735 nonzeros.
Reduced MIP has 1195 binaries, 0 generals, 0 SOSs, and 0 indicators.
Presolve time = 0.00 sec. (6.66 ticks)
Probing fixed 0 vars, tightened 2401 bounds.
Probing time = 0.00 sec. (6.41 ticks)
Clique table members: 190.
MIP emphasis: integer feasibility.
MIP search method: dynamic search.
Parallel mode: deterministic, using up to 8 threads.
Root relaxation solution time = 0.01 sec. (7.51 ticks)

        Nodes                                         Cuts/
   Node  Left     Objective  IInf  Best Integer    Best Bound    ItCnt     Gap

      0     0   348385.3466   471                 348385.3466      852         
      0     0   575085.9047   460                   Cuts: 726     2201         
      0     0   807528.2863   705                   Cuts: 726     3503         
      0     0   945355.4904   706                   Cuts: 726     4854         
*     0+    0                       1.01740e+07   945355.4904            90.71%
*     0+    0                      7973370.0000   945355.4904            88.14%
Detecting symmetries...
      0     2   945355.4904   706  7973370.0000   948845.0718     4854   88.10%
Elapsed time = 0.40 sec. (540.12 ticks, tree = 0.02 MB, solutions = 2)
    316   250   999685.6249   717  7973370.0000   948845.0718    12356   88.10%
    701   558  1074247.5422   629  7973370.0000   948845.0718    17336   88.10%
   1349  1102  1062228.6081   586  7973370.0000   948845.0718    25095   88.10%

Performing restart 1

Repeating presolve.
Tried aggregator 1 time.
MIP Presolve modified 1155 coefficients.
Reduced MIP has 2505 rows, 2975 columns, and 7735 nonzeros.
Reduced MIP has 1195 binaries, 0 generals, 0 SOSs, and 0 indicators.
Presolve time = 0.00 sec. (3.80 ticks)
Tried aggregator 1 time.
MIP Presolve modified 1036 coefficients.
Reduced MIP has 2505 rows, 2975 columns, and 7735 nonzeros.
Reduced MIP has 1195 binaries, 0 generals, 0 SOSs, and 0 indicators.
Presolve time = 0.00 sec. (5.12 ticks)
Represolve time = 0.02 sec. (18.82 ticks)
   1707     0  1083839.6425   761  7973370.0000     Cuts: 726    41148   86.41%
   1707     0  1172980.7990   702  7973370.0000     Cuts: 726    43530   85.29%
   1707     0  1248517.0095   727  7973370.0000     Cuts: 726    47253   84.34%
   1707     2  1248517.0095   727  7973370.0000  1248517.0095    47253   84.34%
   1717    12  1256961.6909   686  7973370.0000  1248546.9453    47745   84.34%
   1732    27  1272956.3365   669  7973370.0000  1248546.9453    48490   84.34%
   1747    42  1291917.5715   632  7973370.0000  1248546.9453    49111   84.34%
   1763    58  1295748.3415   591  7973370.0000  1248546.9453    49821   84.34%
   1771     4  1251101.1413   701  7973370.0000  1248546.9453    47401   84.34%
   1845    88  1352722.7469   691  7973370.0000  1248546.9453    90634   84.34%
Elapsed time = 4.58 sec. (5975.73 ticks, tree = 0.08 MB, solutions = 2)
*  1856+  117                      5057518.0000  1248546.9453            75.31%
*  1857+  117                      4359722.0000  1248546.9453            71.36%
*  1860+  117                      3127213.0000  1248546.9453            60.07%
*  1861+  117                      3028856.0000  1248546.9453            58.78%
*  1865+  117                      3011958.0000  1248546.9453            58.55%
*  1867+  117                      2878481.0000  1248546.9453            56.62%
*  2222+    1                      2792290.0000  1248546.9453            55.29%
*  2222+    1                      2650241.0000  1248546.9453            52.89%
*  2222+    1                      2579694.0000  1248546.9453            51.60%
*  2222+    1                      2557714.0000  1248546.9453            51.19%

Implied bound cuts applied:  16
Flow cuts applied:  566
Mixed integer rounding cuts applied:  951
Flow path cuts applied:  96
Multi commodity flow cuts applied:  22
Lift and project cuts applied:  4
Gomory fractional cuts applied:  2

Root node processing (before b&c):
  Real time             =    0.40 sec. (538.07 ticks)
Parallel b&c, 8 threads:
  Real time             =    4.61 sec. (6092.83 ticks)
  Sync time (average)   =    0.27 sec.
  Wait time (average)   =    0.00 sec.
                          ------------
Total (root+branch&cut) =    5.00 sec. (6630.90 ticks)
Gap: 51.12%
Upper bound: 2.55771e+06
Lower bound: 1.25025e+06
Termination status: Normal
End of CPLEX run. Time: 5.00522 seconds
